\ENCODING=ISO-8859-1
\Problem name: 

Maximize
 obj1: in_polygon_0
Subject To
 c1: - 3 translate_y_0 - 16000000 in_polygon_0 >= -16000024
 c2: 3 translate_x_0 - translate_y_0 - 16000000 in_polygon_0 >= -15999975
 c3: 2 translate_x_0 + 2 translate_y_0 - 16000000 in_polygon_0 >= -15999970
 c4: 3 translate_y_0 - 16000000 in_polygon_0 >= -15999991
 c5: - 3 translate_x_0 + 2 translate_y_0 - 16000000 in_polygon_0 >= -16000039
 c6: - 2 translate_x_0 - 3 translate_y_0 - 16000000 in_polygon_0 >= -16000052
Bounds
 0 <= in_polygon_0 <= 1
Binaries
 in_polygon_0 
End
